c CNF file corresponding to a (partial) station packing problem.
p cnf 2353 229
2337 2338 2339 2340 2341 2342 2343 2344 2345 2346 2347 2348 2349 2350 2351 2352 2353 0
-2337 -2338 0
-2337 -2339 0
-2337 -2340 0
-2337 -2341 0
-2337 -2342 0
-2337 -2343 0
-2337 -2344 0
-2337 -2345 0
-2337 -2346 0
-2337 -2347 0
-2337 -2348 0
-2337 -2349 0
-2337 -2350 0
-2337 -2351 0
-2337 -2352 0
-2337 -2353 0
-2338 -2339 0
-2338 -2340 0
-2338 -2341 0
-2338 -2342 0
-2338 -2343 0
-2338 -2344 0
-2338 -2345 0
-2338 -2346 0
-2338 -2347 0
-2338 -2348 0
-2338 -2349 0
-2338 -2350 0
-2338 -2351 0
-2338 -2352 0
-2338 -2353 0
-2339 -2340 0
-2339 -2341 0
-2339 -2342 0
-2339 -2343 0
-2339 -2344 0
-2339 -2345 0
-2339 -2346 0
-2339 -2347 0
-2339 -2348 0
-2339 -2349 0
-2339 -2350 0
-2339 -2351 0
-2339 -2352 0
-2339 -2353 0
-2340 -2341 0
-2340 -2342 0
-2340 -2343 0
-2340 -2344 0
-2340 -2345 0
-2340 -2346 0
-2340 -2347 0
-2340 -2348 0
-2340 -2349 0
-2340 -2350 0
-2340 -2351 0
-2340 -2352 0
-2340 -2353 0
-2341 -2342 0
-2341 -2343 0
-2341 -2344 0
-2341 -2345 0
-2341 -2346 0
-2341 -2347 0
-2341 -2348 0
-2341 -2349 0
-2341 -2350 0
-2341 -2351 0
-2341 -2352 0
-2341 -2353 0
-2342 -2343 0
-2342 -2344 0
-2342 -2345 0
-2342 -2346 0
-2342 -2347 0
-2342 -2348 0
-2342 -2349 0
-2342 -2350 0
-2342 -2351 0
-2342 -2352 0
-2342 -2353 0
-2343 -2344 0
-2343 -2345 0
-2343 -2346 0
-2343 -2347 0
-2343 -2348 0
-2343 -2349 0
-2343 -2350 0
-2343 -2351 0
-2343 -2352 0
-2343 -2353 0
-2344 -2345 0
-2344 -2346 0
-2344 -2347 0
-2344 -2348 0
-2344 -2349 0
-2344 -2350 0
-2344 -2351 0
-2344 -2352 0
-2344 -2353 0
-2345 -2346 0
-2345 -2347 0
-2345 -2348 0
-2345 -2349 0
-2345 -2350 0
-2345 -2351 0
-2345 -2352 0
-2345 -2353 0
-2346 -2347 0
-2346 -2348 0
-2346 -2349 0
-2346 -2350 0
-2346 -2351 0
-2346 -2352 0
-2346 -2353 0
-2347 -2348 0
-2347 -2349 0
-2347 -2350 0
-2347 -2351 0
-2347 -2352 0
-2347 -2353 0
-2348 -2349 0
-2348 -2350 0
-2348 -2351 0
-2348 -2352 0
-2348 -2353 0
-2349 -2350 0
-2349 -2351 0
-2349 -2352 0
-2349 -2353 0
-2350 -2351 0
-2350 -2352 0
-2350 -2353 0
-2351 -2352 0
-2351 -2353 0
-2352 -2353 0
1 2 3 4 5 6 7 8 9 10 11 12 13 14 0
-1 -2 0
-1 -3 0
-1 -4 0
-1 -5 0
-1 -6 0
-1 -7 0
-1 -8 0
-1 -9 0
-1 -10 0
-1 -11 0
-1 -12 0
-1 -13 0
-1 -14 0
-2 -3 0
-2 -4 0
-2 -5 0
-2 -6 0
-2 -7 0
-2 -8 0
-2 -9 0
-2 -10 0
-2 -11 0
-2 -12 0
-2 -13 0
-2 -14 0
-3 -4 0
-3 -5 0
-3 -6 0
-3 -7 0
-3 -8 0
-3 -9 0
-3 -10 0
-3 -11 0
-3 -12 0
-3 -13 0
-3 -14 0
-4 -5 0
-4 -6 0
-4 -7 0
-4 -8 0
-4 -9 0
-4 -10 0
-4 -11 0
-4 -12 0
-4 -13 0
-4 -14 0
-5 -6 0
-5 -7 0
-5 -8 0
-5 -9 0
-5 -10 0
-5 -11 0
-5 -12 0
-5 -13 0
-5 -14 0
-6 -7 0
-6 -8 0
-6 -9 0
-6 -10 0
-6 -11 0
-6 -12 0
-6 -13 0
-6 -14 0
-7 -8 0
-7 -9 0
-7 -10 0
-7 -11 0
-7 -12 0
-7 -13 0
-7 -14 0
-8 -9 0
-8 -10 0
-8 -11 0
-8 -12 0
-8 -13 0
-8 -14 0
-9 -10 0
-9 -11 0
-9 -12 0
-9 -13 0
-9 -14 0
-10 -11 0
-10 -12 0
-10 -13 0
-10 -14 0
-11 -12 0
-11 -13 0
-11 -14 0
-12 -13 0
-12 -14 0
-13 -14 0
